34841
1 1 1 1 1 1 1 1 1 1 1 1 1 0 1 1 1 1 0 1 1 1 1 1 0 1 1 1 0 1
19 20 1 15 9 3 8 3 6 25 9 4 10 12 27 2 7 16 16 20 16 16 4 19 17 8 7 0 20 16 4 5 7 3 2 16 7 16 26 10 1 12 12 1 3 22 12 5 22 19 17 14 26 4 17 4 5 5 14 15 17 27 22 25 15 21 5 14 9 10 29 3 2 8 5 15 12 11 3 14 5 25 11 23 20 5 15 2 6 15 9 29 0 27 29 17 20 29 11 3 6 9 19 11 27 19 1 23 11 9 25 17 29 21 7 17 20 8 11 2 0 10 10 22 1 11 21 20 8 2 23 12 23 9 16 26 5 23 14 1 2 17 19 11 6 19 1 8 11 9 8 11 5 22 4 25 0 23 12 17 23 8 19 17 26 0 2 5 29 23 17 14 26 20 25 10 2 14 27 4 26 4 19 22 21 15 29 1 8 29 16 8 26 20 8 10 4 1 27 8